NAME          COPTPROB
OBJSENSE
  MIN
ROWS
 N  __OBJ___
 L  C28     
 L  C39     
 L  C77     
 L  C107    
 L  C135    
 L  C269    
COLUMNS
    MARKER    'MARKER'                 'INTORG'
    x19       __OBJ___  -1
    x19       C39       1
    x19       C77       1
    x56       __OBJ___  -1
    x56       C107      1
    x56       C269      1
    x79       __OBJ___  -1
    x79       C28       1
    x79       C77       1
    x82       __OBJ___  -1
    x82       C39       1
    x82       C269      1
    x90       __OBJ___  -1
    x90       C28       1
    x90       C135      1
    x103      __OBJ___  -1
    x103      C107      1
    x103      C135      1
    MARKER    'MARKER'                 'INTEND'
RHS
    RHS       __OBJ___  83
    RHS       C28       1
    RHS       C39       1
    RHS       C77       1
    RHS       C107      1
    RHS       C135      1
    RHS       C269      1
BOUNDS
 UP BOUND     x19       1
 UP BOUND     x56       1
 UP BOUND     x79       1
 UP BOUND     x82       1
 UP BOUND     x90       1
 UP BOUND     x103      1
ENDATA
